c read Graph
c width = 143
c time = 90 ms
c width = 16
c time = 182 ms
c width = 15
c time = 271 ms
c width = 14
c time = 395 ms
c width = 13
c time = 2171 ms
c width = 12
c time = 4007 ms
c width = 12
c time = 5011 ms
s td 141 13 156
b 1 1 2 14
b 2 2 3 14 15
b 3 11 12 25 26
b 4 3 14 15 27
b 5 11 25 26 39
b 6 118 131 132 145
b 7 130 142 143 155
b 8 118 132 145 146
b 9 130 142 154 155
b 10 3 4 5 17
b 11 3 5 16 17 28 40
b 12 5 16 17 28 30 40 42
b 13 5 17 28 30 40 42 54
b 14 5 17 30 40 42 54 66
b 15 5 17 19 30 31 42 54 66
b 16 5 17 18 19 31
b 17 5 19 30 31 42 44 54 56 66
b 18 30 42 43 44 56
b 19 5 19 31 42 44 54 56 66 68
b 20 42 54 55 56 68
b 21 5 19 31 44 54 56 66 68 80
b 22 54 66 67 68 80
b 23 5 19 31 33 44 45 56 66 68 80
b 24 19 31 32 33 45
b 25 5 9 19 21 33 44 45 56 66 68 80
b 26 9 21 33 44 45 56 57 66 68 80
b 27 9 21 33 45 56 57 66 68 71 80 83 94 95
b 28 56 57 68 71 80 82 83 94 95
b 29 56 57 68 70 71 82 83
b 30 56 68 69 70 82
b 31 68 80 81 82 94
b 32 9 21 33 45 57 59 66 71 80 83 94 95
b 33 9 21 33 45 47 59 66 71 80 83 94 95
b 34 33 45 46 47 59
b 35 9 21 33 47 59 66 71 80 83 92 94 95
b 36 9 21 33 47 59 71 80 83 92 94 95 106
b 37 80 92 93 94 106
b 38 9 21 33 47 59 71 83 92 94 95 106 118
b 39 9 21 33 47 59 71 83 94 95 106 107 118
b 40 9 21 33 47 59 71 83 95 106 107 118 119
b 41 9 21 33 47 59 71 83 95 107 118 119 133 147
b 42 9 21 33 47 59 71 83 95 107 119 120 133 147
b 43 9 21 33 47 59 71 83 95 107 120 121 133 147
b 44 9 21 33 47 59 71 83 95 107 121 133 135 147
b 45 9 21 33 47 59 71 83 95 107 109 121 135 147
b 46 95 107 108 109 121
b 47 121 133 134 135 147
b 48 118 119 133 146 147
b 49 118 119 132 133 146
b 50 92 105 106 118
b 51 66 79 80 92
b 52 45 57 58 59 71
b 53 5 7 9 19 21 33
b 54 7 19 20 21 33
b 55 7 8 9 21
b 56 5 6 7 19
b 57 40 53 54 66
b 58 28 40 41 42 54
b 59 16 28 29 30 42
b 60 3 16 27 28 40
b 61 3 15 16 27 28
b 62 9 21 33 35 47 59 71 83 95 109 121 135 147
b 63 9 21 35 47 59 71 83 95 97 109 121 135 147
b 64 9 21 35 47 59 71 83 85 97 109 121 135 147
b 65 9 21 35 47 59 71 73 85 97 109 121 135 147
b 66 9 21 35 47 59 60 73 85 97 109 121 135 147
b 67 9 21 35 47 48 60 73 85 97 109 121 135 147
b 68 9 21 35 48 60 61 73 85 97 109 121 135 147
b 69 9 21 35 48 61 73 85 97 109 121 123 135 147
b 70 9 21 35 48 61 73 85 97 109 111 123 135 147
b 71 9 21 35 48 61 73 85 97 99 111 123 135 147
b 72 9 21 35 48 61 73 85 87 99 111 123 135 147
b 73 9 21 35 48 61 73 74 87 99 111 123 135 147
b 74 9 21 35 48 61 62 74 87 99 111 123 135 147
b 75 9 21 35 48 62 74 87 99 111 123 135 147 149
b 76 9 21 35 48 62 74 87 99 111 123 135 137 149
b 77 9 21 35 48 62 74 87 99 111 123 125 137 149
b 78 9 21 35 48 62 74 87 99 111 113 125 137 149
b 79 9 21 35 48 62 74 87 99 101 113 125 137 149
b 80 9 21 35 48 62 74 87 88 101 113 125 137 149
b 81 9 21 35 48 62 74 76 88 101 113 125 137 149
b 82 9 21 35 48 62 76 88 101 113 125 137 149 151
b 83 9 21 35 48 62 76 88 101 113 125 137 139 151
b 84 9 21 35 48 62 76 88 101 113 125 127 139 151
b 85 9 21 35 48 62 76 88 101 113 115 127 139 151
b 86 9 21 35 48 62 76 88 101 102 115 127 139 151
b 87 9 21 35 48 62 76 88 90 102 115 127 139 151
b 88 9 21 35 48 62 76 78 90 102 115 127 139 151
b 89 21 33 34 35 47
b 90 59 71 72 73 85
b 91 71 83 84 85 97
b 92 83 95 96 97 109
b 93 135 147 148 149
b 94 123 135 136 137 149
b 95 137 149 150 151
b 96 109 121 122 123 135
b 97 97 109 110 111 123
b 98 9 21 35 48 62 64 76 78 90
b 99 64 76 77 78 90
b 100 9 21 35 48 50 62 64 76 78
b 101 50 62 63 64 76
b 102 9 21 35 36 48 50 62 64 78
b 103 36 48 49 50 62
b 104 9 21 23 35 36 50 64 78
b 105 9 23 36 50 52 64 78
b 106 9 23 36 38 50 52 64
b 107 38 50 51 52 64
b 108 9 23 24 36 38 50 52
b 109 9 11 23 24 38 52
b 110 11 24 38 39 52
b 111 11 24 25 38 39
b 112 9 10 11 23
b 113 24 36 37 38 50
b 114 52 64 65 78
b 115 9 21 22 23 35
b 116 78 90 102 115 127 129 130 139 151
b 117 115 127 129 130 139 151 153
b 118 115 127 129 130 139 141 153
b 119 127 139 140 141 153
b 120 129 130 141 153 154
b 121 129 130 141 142 154
b 122 115 127 128 129 141
b 123 139 151 152 153
b 124 78 90 102 115 116 129 130
b 125 78 90 102 104 116 130
b 126 104 116 117 130
b 127 90 102 103 104 116
b 128 78 90 91 104
b 129 76 88 89 90 102
b 130 62 74 75 76 88
b 131 101 113 114 115 127
b 132 87 99 100 101 113
b 133 113 125 126 127 139
b 134 125 137 138 139 151
b 135 99 111 112 113 125
b 136 111 123 124 125 137
b 137 73 85 86 87 99
b 138 85 97 98 99 111
b 139 143 155 156
b 140 131 144 145
b 141 12 13 26
1 2
2 4
3 141
3 5
4 61
5 111
6 140
6 8
7 139
7 9
8 49
9 121
10 11
11 60
11 12
12 59
12 13
13 58
13 14
14 57
14 15
15 17
15 16
17 19
17 18
19 21
19 20
21 23
21 22
23 25
23 24
25 53
25 26
26 27
27 32
27 28
28 31
28 29
29 30
32 52
32 33
33 35
33 34
35 51
35 36
36 38
36 37
38 50
38 39
39 40
40 41
41 48
41 42
42 43
43 44
44 47
44 45
45 62
45 46
48 49
53 54
53 55
53 56
60 61
62 89
62 63
63 92
63 64
64 91
64 65
65 90
65 66
66 67
67 68
68 69
69 96
69 70
70 97
70 71
71 138
71 72
72 137
72 73
73 74
74 75
75 93
75 76
76 94
76 77
77 136
77 78
78 135
78 79
79 132
79 80
80 81
81 130
81 82
82 95
82 83
83 134
83 84
84 133
84 85
85 131
85 86
86 87
87 129
87 88
88 98
88 116
98 99
98 100
100 102
100 101
102 104
102 103
104 105
104 115
105 114
105 106
106 107
106 108
108 113
108 109
109 112
109 110
110 111
116 117
116 124
117 123
117 118
118 120
118 119
118 122
120 121
124 125
125 128
125 126
125 127
